(declare-fun X_0 () Real)
(declare-fun X_1 () Real)
(declare-fun Y_0 () Real)
(declare-fun Y_1 () Real)
(declare-fun Y_2 () Real)

(assert (<= X_0 -0.05))
(assert (>= X_0 -0.11))
(assert (<= X_1 2.0))
(assert (>= X_1 1.8))

(assert (<= Y_0 7.9))
(assert (>= Y_0 7.885))
(assert (<= Y_1 8.24))
(assert (>= Y_1 8.23))
(assert (<= Y_2 8.25))
(assert (>= Y_2 8.235))

